language Essence 1.3

letting class be
        function(1 --> 6, 2 --> 8, 3 --> 2, 4 --> 4, 5 --> 9, 6 --> 2, 7 --> 9, 8 --> 4, 9 --> 6, 10 --> 8, 11 --> 3,
                 12 --> 6, 13 --> 5, 14 --> 6, 15 --> 9, 16 --> 9, 17 --> 1, 18 --> 6, 19 --> 5, 20 --> 4, 21 --> 5,
                 22 --> 7, 23 --> 5, 24 --> 2, 25 --> 1, 26 --> 9)
letting deck_length be 89
letting deck_width be 31
letting length be
        function(1 --> 1, 2 --> 23, 3 --> 1, 4 --> 3, 5 --> 1, 6 --> 1, 7 --> 1, 8 --> 1, 9 --> 1, 10 --> 1, 11 --> 1,
                 12 --> 1, 13 --> 1, 14 --> 1, 15 --> 1, 16 --> 1, 17 --> 1, 18 --> 1, 19 --> 1, 20 --> 1, 21 --> 1,
                 22 --> 6, 23 --> 9, 24 --> 1, 25 --> 1, 26 --> 1)
letting n_classes be 9
letting n_containers be 26
letting separation be function({1, 4} --> 64)
letting width be
        function(1 --> 27, 2 --> 31, 3 --> 11, 4 --> 30, 5 --> 4, 6 --> 8, 7 --> 5, 8 --> 19, 9 --> 5, 10 --> 11,
                 11 --> 24, 12 --> 9, 13 --> 21, 14 --> 8, 15 --> 4, 16 --> 12, 17 --> 18, 18 --> 19, 19 --> 27,
                 20 --> 28, 21 --> 24, 22 --> 30, 23 --> 29, 24 --> 6, 25 --> 17, 26 --> 19)
